proyfinal/src/viki/013/andrea/andrea-localstore/experimentInOfficeAgust.take6/worker_6/d914988e-aea5-4ff9-a028-a1ee39681561.als.cnf.out
Reading from standard input... Use '--help' for help.
============================[ Problem Statistics ]=============================
|                                                                             |
|  Number of variables:         87638                                         |
|  Number of clauses:          161767                                         |
|  Parse time:                   0.04 s                                       |
|                                                                             |
============================[ Search Statistics ]==============================
| Conflicts |          ORIGINAL         |          LEARNT          | Progress |
|           |    Vars  Clauses Literals |    Limit  Clauses Lit/Cl |          |
===============================================================================
|       100 |   62675   106252   265491 |    38959      100     35 | 28.484 % |
|       250 |   62675   106252   265491 |    42854      250     36 | 28.484 % |
|       475 |   62675   106252   265491 |    47140      475     54 | 28.484 % |
|       812 |   62675   106252   265491 |    51854      812     60 | 28.484 % |
|      1318 |   62675   106252   265491 |    57039     1318     77 | 28.484 % |
|      2077 |   62675   106252   265491 |    62743     2077     69 | 28.484 % |
|      3216 |   62651   106152   265262 |    69018     2273     74 | 28.512 % |
|      4924 |   62624   106002   264913 |    75920     3777     71 | 28.542 % |
|      7486 |   62624   106002   264913 |    83512     6339     76 | 28.542 % |
|     11330 |   62560   105707   264243 |    91863     9623     74 | 28.615 % |
===============================================================================
restarts              : 63
conflicts             : 16075          (6186 /sec)
decisions             : 49293          (0.00 % random) (18968 /sec)
propagations          : 25397229       (9772758 /sec)
conflict literals     : 1216448        (58.36 % deleted)
Memory used           : 29.34 MB
CPU time              : 2.59878 s

UNSATISFIABLE
